c File: flat200_3_0.col
c
c SOURCE: Joseph Culberson (joe@cs.ualberta.ca)
c DESCRIPTION: Quasi-random coloring problem
c              generated with flatness = 0
c                             probability = 0.036
c                             known coloring = 3
c                             random seed = 1053
c              Creation Date:  Wed Feb 24 10:39:58 1999
c Maximum degree = 8 Minimum degree = 1
c COLOR VERIFICATION: Using the permuted order
c under simple greedy yields the specified
c coloring number
c Color = 3 specified partitions = 3
c p edge 200 479
c cnf created by edge2cnf
p cnf 600 2237
-1 -2 0
-1 -3 0
-2 -3 0
1 2 3 0
-4 -5 0
-4 -6 0
-5 -6 0
4 5 6 0
-7 -8 0
-7 -9 0
-8 -9 0
7 8 9 0
-10 -11 0
-10 -12 0
-11 -12 0
10 11 12 0
-13 -14 0
-13 -15 0
-14 -15 0
13 14 15 0
-16 -17 0
-16 -18 0
-17 -18 0
16 17 18 0
-19 -20 0
-19 -21 0
-20 -21 0
19 20 21 0
-22 -23 0
-22 -24 0
-23 -24 0
22 23 24 0
-25 -26 0
-25 -27 0
-26 -27 0
25 26 27 0
-28 -29 0
-28 -30 0
-29 -30 0
28 29 30 0
-31 -32 0
-31 -33 0
-32 -33 0
31 32 33 0
-34 -35 0
-34 -36 0
-35 -36 0
34 35 36 0
-37 -38 0
-37 -39 0
-38 -39 0
37 38 39 0
-40 -41 0
-40 -42 0
-41 -42 0
40 41 42 0
-43 -44 0
-43 -45 0
-44 -45 0
43 44 45 0
-46 -47 0
-46 -48 0
-47 -48 0
46 47 48 0
-49 -50 0
-49 -51 0
-50 -51 0
49 50 51 0
-52 -53 0
-52 -54 0
-53 -54 0
52 53 54 0
-55 -56 0
-55 -57 0
-56 -57 0
55 56 57 0
-58 -59 0
-58 -60 0
-59 -60 0
58 59 60 0
-61 -62 0
-61 -63 0
-62 -63 0
61 62 63 0
-64 -65 0
-64 -66 0
-65 -66 0
64 65 66 0
-67 -68 0
-67 -69 0
-68 -69 0
67 68 69 0
-70 -71 0
-70 -72 0
-71 -72 0
70 71 72 0
-73 -74 0
-73 -75 0
-74 -75 0
73 74 75 0
-76 -77 0
-76 -78 0
-77 -78 0
76 77 78 0
-79 -80 0
-79 -81 0
-80 -81 0
79 80 81 0
-82 -83 0
-82 -84 0
-83 -84 0
82 83 84 0
-85 -86 0
-85 -87 0
-86 -87 0
85 86 87 0
-88 -89 0
-88 -90 0
-89 -90 0
88 89 90 0
-91 -92 0
-91 -93 0
-92 -93 0
91 92 93 0
-94 -95 0
-94 -96 0
-95 -96 0
94 95 96 0
-97 -98 0
-97 -99 0
-98 -99 0
97 98 99 0
-100 -101 0
-100 -102 0
-101 -102 0
100 101 102 0
-103 -104 0
-103 -105 0
-104 -105 0
103 104 105 0
-106 -107 0
-106 -108 0
-107 -108 0
106 107 108 0
-109 -110 0
-109 -111 0
-110 -111 0
109 110 111 0
-112 -113 0
-112 -114 0
-113 -114 0
112 113 114 0
-115 -116 0
-115 -117 0
-116 -117 0
115 116 117 0
-118 -119 0
-118 -120 0
-119 -120 0
118 119 120 0
-121 -122 0
-121 -123 0
-122 -123 0
121 122 123 0
-124 -125 0
-124 -126 0
-125 -126 0
124 125 126 0
-127 -128 0
-127 -129 0
-128 -129 0
127 128 129 0
-130 -131 0
-130 -132 0
-131 -132 0
130 131 132 0
-133 -134 0
-133 -135 0
-134 -135 0
133 134 135 0
-136 -137 0
-136 -138 0
-137 -138 0
136 137 138 0
-139 -140 0
-139 -141 0
-140 -141 0
139 140 141 0
-142 -143 0
-142 -144 0
-143 -144 0
142 143 144 0
-145 -146 0
-145 -147 0
-146 -147 0
145 146 147 0
-148 -149 0
-148 -150 0
-149 -150 0
148 149 150 0
-151 -152 0
-151 -153 0
-152 -153 0
151 152 153 0
-154 -155 0
-154 -156 0
-155 -156 0
154 155 156 0
-157 -158 0
-157 -159 0
-158 -159 0
157 158 159 0
-160 -161 0
-160 -162 0
-161 -162 0
160 161 162 0
-163 -164 0
-163 -165 0
-164 -165 0
163 164 165 0
-166 -167 0
-166 -168 0
-167 -168 0
166 167 168 0
-169 -170 0
-169 -171 0
-170 -171 0
169 170 171 0
-172 -173 0
-172 -174 0
-173 -174 0
172 173 174 0
-175 -176 0
-175 -177 0
-176 -177 0
175 176 177 0
-178 -179 0
-178 -180 0
-179 -180 0
178 179 180 0
-181 -182 0
-181 -183 0
-182 -183 0
181 182 183 0
-184 -185 0
-184 -186 0
-185 -186 0
184 185 186 0
-187 -188 0
-187 -189 0
-188 -189 0
187 188 189 0
-190 -191 0
-190 -192 0
-191 -192 0
190 191 192 0
-193 -194 0
-193 -195 0
-194 -195 0
193 194 195 0
-196 -197 0
-196 -198 0
-197 -198 0
196 197 198 0
-199 -200 0
-199 -201 0
-200 -201 0
199 200 201 0
-202 -203 0
-202 -204 0
-203 -204 0
202 203 204 0
-205 -206 0
-205 -207 0
-206 -207 0
205 206 207 0
-208 -209 0
-208 -210 0
-209 -210 0
208 209 210 0
-211 -212 0
-211 -213 0
-212 -213 0
211 212 213 0
-214 -215 0
-214 -216 0
-215 -216 0
214 215 216 0
-217 -218 0
-217 -219 0
-218 -219 0
217 218 219 0
-220 -221 0
-220 -222 0
-221 -222 0
220 221 222 0
-223 -224 0
-223 -225 0
-224 -225 0
223 224 225 0
-226 -227 0
-226 -228 0
-227 -228 0
226 227 228 0
-229 -230 0
-229 -231 0
-230 -231 0
229 230 231 0
-232 -233 0
-232 -234 0
-233 -234 0
232 233 234 0
-235 -236 0
-235 -237 0
-236 -237 0
235 236 237 0
-238 -239 0
-238 -240 0
-239 -240 0
238 239 240 0
-241 -242 0
-241 -243 0
-242 -243 0
241 242 243 0
-244 -245 0
-244 -246 0
-245 -246 0
244 245 246 0
-247 -248 0
-247 -249 0
-248 -249 0
247 248 249 0
-250 -251 0
-250 -252 0
-251 -252 0
250 251 252 0
-253 -254 0
-253 -255 0
-254 -255 0
253 254 255 0
-256 -257 0
-256 -258 0
-257 -258 0
256 257 258 0
-259 -260 0
-259 -261 0
-260 -261 0
259 260 261 0
-262 -263 0
-262 -264 0
-263 -264 0
262 263 264 0
-265 -266 0
-265 -267 0
-266 -267 0
265 266 267 0
-268 -269 0
-268 -270 0
-269 -270 0
268 269 270 0
-271 -272 0
-271 -273 0
-272 -273 0
271 272 273 0
-274 -275 0
-274 -276 0
-275 -276 0
274 275 276 0
-277 -278 0
-277 -279 0
-278 -279 0
277 278 279 0
-280 -281 0
-280 -282 0
-281 -282 0
280 281 282 0
-283 -284 0
-283 -285 0
-284 -285 0
283 284 285 0
-286 -287 0
-286 -288 0
-287 -288 0
286 287 288 0
-289 -290 0
-289 -291 0
-290 -291 0
289 290 291 0
-292 -293 0
-292 -294 0
-293 -294 0
292 293 294 0
-295 -296 0
-295 -297 0
-296 -297 0
295 296 297 0
-298 -299 0
-298 -300 0
-299 -300 0
298 299 300 0
-301 -302 0
-301 -303 0
-302 -303 0
301 302 303 0
-304 -305 0
-304 -306 0
-305 -306 0
304 305 306 0
-307 -308 0
-307 -309 0
-308 -309 0
307 308 309 0
-310 -311 0
-310 -312 0
-311 -312 0
310 311 312 0
-313 -314 0
-313 -315 0
-314 -315 0
313 314 315 0
-316 -317 0
-316 -318 0
-317 -318 0
316 317 318 0
-319 -320 0
-319 -321 0
-320 -321 0
319 320 321 0
-322 -323 0
-322 -324 0
-323 -324 0
322 323 324 0
-325 -326 0
-325 -327 0
-326 -327 0
325 326 327 0
-328 -329 0
-328 -330 0
-329 -330 0
328 329 330 0
-331 -332 0
-331 -333 0
-332 -333 0
331 332 333 0
-334 -335 0
-334 -336 0
-335 -336 0
334 335 336 0
-337 -338 0
-337 -339 0
-338 -339 0
337 338 339 0
-340 -341 0
-340 -342 0
-341 -342 0
340 341 342 0
-343 -344 0
-343 -345 0
-344 -345 0
343 344 345 0
-346 -347 0
-346 -348 0
-347 -348 0
346 347 348 0
-349 -350 0
-349 -351 0
-350 -351 0
349 350 351 0
-352 -353 0
-352 -354 0
-353 -354 0
352 353 354 0
-355 -356 0
-355 -357 0
-356 -357 0
355 356 357 0
-358 -359 0
-358 -360 0
-359 -360 0
358 359 360 0
-361 -362 0
-361 -363 0
-362 -363 0
361 362 363 0
-364 -365 0
-364 -366 0
-365 -366 0
364 365 366 0
-367 -368 0
-367 -369 0
-368 -369 0
367 368 369 0
-370 -371 0
-370 -372 0
-371 -372 0
370 371 372 0
-373 -374 0
-373 -375 0
-374 -375 0
373 374 375 0
-376 -377 0
-376 -378 0
-377 -378 0
376 377 378 0
-379 -380 0
-379 -381 0
-380 -381 0
379 380 381 0
-382 -383 0
-382 -384 0
-383 -384 0
382 383 384 0
-385 -386 0
-385 -387 0
-386 -387 0
385 386 387 0
-388 -389 0
-388 -390 0
-389 -390 0
388 389 390 0
-391 -392 0
-391 -393 0
-392 -393 0
391 392 393 0
-394 -395 0
-394 -396 0
-395 -396 0
394 395 396 0
-397 -398 0
-397 -399 0
-398 -399 0
397 398 399 0
-400 -401 0
-400 -402 0
-401 -402 0
400 401 402 0
-403 -404 0
-403 -405 0
-404 -405 0
403 404 405 0
-406 -407 0
-406 -408 0
-407 -408 0
406 407 408 0
-409 -410 0
-409 -411 0
-410 -411 0
409 410 411 0
-412 -413 0
-412 -414 0
-413 -414 0
412 413 414 0
-415 -416 0
-415 -417 0
-416 -417 0
415 416 417 0
-418 -419 0
-418 -420 0
-419 -420 0
418 419 420 0
-421 -422 0
-421 -423 0
-422 -423 0
421 422 423 0
-424 -425 0
-424 -426 0
-425 -426 0
424 425 426 0
-427 -428 0
-427 -429 0
-428 -429 0
427 428 429 0
-430 -431 0
-430 -432 0
-431 -432 0
430 431 432 0
-433 -434 0
-433 -435 0
-434 -435 0
433 434 435 0
-436 -437 0
-436 -438 0
-437 -438 0
436 437 438 0
-439 -440 0
-439 -441 0
-440 -441 0
439 440 441 0
-442 -443 0
-442 -444 0
-443 -444 0
442 443 444 0
-445 -446 0
-445 -447 0
-446 -447 0
445 446 447 0
-448 -449 0
-448 -450 0
-449 -450 0
448 449 450 0
-451 -452 0
-451 -453 0
-452 -453 0
451 452 453 0
-454 -455 0
-454 -456 0
-455 -456 0
454 455 456 0
-457 -458 0
-457 -459 0
-458 -459 0
457 458 459 0
-460 -461 0
-460 -462 0
-461 -462 0
460 461 462 0
-463 -464 0
-463 -465 0
-464 -465 0
463 464 465 0
-466 -467 0
-466 -468 0
-467 -468 0
466 467 468 0
-469 -470 0
-469 -471 0
-470 -471 0
469 470 471 0
-472 -473 0
-472 -474 0
-473 -474 0
472 473 474 0
-475 -476 0
-475 -477 0
-476 -477 0
475 476 477 0
-478 -479 0
-478 -480 0
-479 -480 0
478 479 480 0
-481 -482 0
-481 -483 0
-482 -483 0
481 482 483 0
-484 -485 0
-484 -486 0
-485 -486 0
484 485 486 0
-487 -488 0
-487 -489 0
-488 -489 0
487 488 489 0
-490 -491 0
-490 -492 0
-491 -492 0
490 491 492 0
-493 -494 0
-493 -495 0
-494 -495 0
493 494 495 0
-496 -497 0
-496 -498 0
-497 -498 0
496 497 498 0
-499 -500 0
-499 -501 0
-500 -501 0
499 500 501 0
-502 -503 0
-502 -504 0
-503 -504 0
502 503 504 0
-505 -506 0
-505 -507 0
-506 -507 0
505 506 507 0
-508 -509 0
-508 -510 0
-509 -510 0
508 509 510 0
-511 -512 0
-511 -513 0
-512 -513 0
511 512 513 0
-514 -515 0
-514 -516 0
-515 -516 0
514 515 516 0
-517 -518 0
-517 -519 0
-518 -519 0
517 518 519 0
-520 -521 0
-520 -522 0
-521 -522 0
520 521 522 0
-523 -524 0
-523 -525 0
-524 -525 0
523 524 525 0
-526 -527 0
-526 -528 0
-527 -528 0
526 527 528 0
-529 -530 0
-529 -531 0
-530 -531 0
529 530 531 0
-532 -533 0
-532 -534 0
-533 -534 0
532 533 534 0
-535 -536 0
-535 -537 0
-536 -537 0
535 536 537 0
-538 -539 0
-538 -540 0
-539 -540 0
538 539 540 0
-541 -542 0
-541 -543 0
-542 -543 0
541 542 543 0
-544 -545 0
-544 -546 0
-545 -546 0
544 545 546 0
-547 -548 0
-547 -549 0
-548 -549 0
547 548 549 0
-550 -551 0
-550 -552 0
-551 -552 0
550 551 552 0
-553 -554 0
-553 -555 0
-554 -555 0
553 554 555 0
-556 -557 0
-556 -558 0
-557 -558 0
556 557 558 0
-559 -560 0
-559 -561 0
-560 -561 0
559 560 561 0
-562 -563 0
-562 -564 0
-563 -564 0
562 563 564 0
-565 -566 0
-565 -567 0
-566 -567 0
565 566 567 0
-568 -569 0
-568 -570 0
-569 -570 0
568 569 570 0
-571 -572 0
-571 -573 0
-572 -573 0
571 572 573 0
-574 -575 0
-574 -576 0
-575 -576 0
574 575 576 0
-577 -578 0
-577 -579 0
-578 -579 0
577 578 579 0
-580 -581 0
-580 -582 0
-581 -582 0
580 581 582 0
-583 -584 0
-583 -585 0
-584 -585 0
583 584 585 0
-586 -587 0
-586 -588 0
-587 -588 0
586 587 588 0
-589 -590 0
-589 -591 0
-590 -591 0
589 590 591 0
-592 -593 0
-592 -594 0
-593 -594 0
592 593 594 0
-595 -596 0
-595 -597 0
-596 -597 0
595 596 597 0
-598 -599 0
-598 -600 0
-599 -600 0
598 599 600 0
-25 -1 0
-26 -2 0
-27 -3 0
-40 -1 0
-41 -2 0
-42 -3 0
-307 -1 0
-308 -2 0
-309 -3 0
-127 -4 0
-128 -5 0
-129 -6 0
-220 -4 0
-221 -5 0
-222 -6 0
-340 -4 0
-341 -5 0
-342 -6 0
-370 -4 0
-371 -5 0
-372 -6 0
-223 -7 0
-224 -8 0
-225 -9 0
-283 -7 0
-284 -8 0
-285 -9 0
-304 -7 0
-305 -8 0
-306 -9 0
-376 -7 0
-377 -8 0
-378 -9 0
-154 -10 0
-155 -11 0
-156 -12 0
-190 -10 0
-191 -11 0
-192 -12 0
-394 -10 0
-395 -11 0
-396 -12 0
-433 -10 0
-434 -11 0
-435 -12 0
-568 -10 0
-569 -11 0
-570 -12 0
-580 -10 0
-581 -11 0
-582 -12 0
-184 -13 0
-185 -14 0
-186 -15 0
-253 -13 0
-254 -14 0
-255 -15 0
-559 -13 0
-560 -14 0
-561 -15 0
-136 -16 0
-137 -17 0
-138 -18 0
-415 -16 0
-416 -17 0
-417 -18 0
-478 -16 0
-479 -17 0
-480 -18 0
-271 -19 0
-272 -20 0
-273 -21 0
-349 -19 0
-350 -20 0
-351 -21 0
-454 -19 0
-455 -20 0
-456 -21 0
-421 -22 0
-422 -23 0
-423 -24 0
-124 -25 0
-125 -26 0
-126 -27 0
-151 -25 0
-152 -26 0
-153 -27 0
-304 -28 0
-305 -29 0
-306 -30 0
-382 -28 0
-383 -29 0
-384 -30 0
-472 -28 0
-473 -29 0
-474 -30 0
-199 -31 0
-200 -32 0
-201 -33 0
-214 -31 0
-215 -32 0
-216 -33 0
-286 -31 0
-287 -32 0
-288 -33 0
-427 -34 0
-428 -35 0
-429 -36 0
-85 -37 0
-86 -38 0
-87 -39 0
-154 -37 0
-155 -38 0
-156 -39 0
-259 -37 0
-260 -38 0
-261 -39 0
-427 -37 0
-428 -38 0
-429 -39 0
-457 -37 0
-458 -38 0
-459 -39 0
-496 -37 0
-497 -38 0
-498 -39 0
-532 -37 0
-533 -38 0
-534 -39 0
-46 -40 0
-47 -41 0
-48 -42 0
-223 -40 0
-224 -41 0
-225 -42 0
-514 -40 0
-515 -41 0
-516 -42 0
-529 -40 0
-530 -41 0
-531 -42 0
-568 -40 0
-569 -41 0
-570 -42 0
-85 -43 0
-86 -44 0
-87 -45 0
-172 -43 0
-173 -44 0
-174 -45 0
-310 -43 0
-311 -44 0
-312 -45 0
-388 -43 0
-389 -44 0
-390 -45 0
-394 -43 0
-395 -44 0
-396 -45 0
-430 -43 0
-431 -44 0
-432 -45 0
-562 -43 0
-563 -44 0
-564 -45 0
-100 -46 0
-101 -47 0
-102 -48 0
-109 -46 0
-110 -47 0
-111 -48 0
-193 -46 0
-194 -47 0
-195 -48 0
-205 -46 0
-206 -47 0
-207 -48 0
-316 -46 0
-317 -47 0
-318 -48 0
-331 -46 0
-332 -47 0
-333 -48 0
-178 -49 0
-179 -50 0
-180 -51 0
-373 -49 0
-374 -50 0
-375 -51 0
-469 -49 0
-470 -50 0
-471 -51 0
-472 -49 0
-473 -50 0
-474 -51 0
-484 -49 0
-485 -50 0
-486 -51 0
-202 -52 0
-203 -53 0
-204 -54 0
-430 -52 0
-431 -53 0
-432 -54 0
-577 -52 0
-578 -53 0
-579 -54 0
-109 -55 0
-110 -56 0
-111 -57 0
-289 -55 0
-290 -56 0
-291 -57 0
-505 -55 0
-506 -56 0
-507 -57 0
-130 -58 0
-131 -59 0
-132 -60 0
-313 -58 0
-314 -59 0
-315 -60 0
-484 -58 0
-485 -59 0
-486 -60 0
-565 -58 0
-566 -59 0
-567 -60 0
-589 -58 0
-590 -59 0
-591 -60 0
-268 -61 0
-269 -62 0
-270 -63 0
-274 -61 0
-275 -62 0
-276 -63 0
-385 -64 0
-386 -65 0
-387 -66 0
-400 -64 0
-401 -65 0
-402 -66 0
-406 -64 0
-407 -65 0
-408 -66 0
-457 -64 0
-458 -65 0
-459 -66 0
-160 -67 0
-161 -68 0
-162 -69 0
-376 -67 0
-377 -68 0
-378 -69 0
-595 -67 0
-596 -68 0
-597 -69 0
-142 -70 0
-143 -71 0
-144 -72 0
-259 -70 0
-260 -71 0
-261 -72 0
-514 -70 0
-515 -71 0
-516 -72 0
-532 -70 0
-533 -71 0
-534 -72 0
-589 -70 0
-590 -71 0
-591 -72 0
-190 -73 0
-191 -74 0
-192 -75 0
-574 -73 0
-575 -74 0
-576 -75 0
-85 -76 0
-86 -77 0
-87 -78 0
-406 -76 0
-407 -77 0
-408 -78 0
-415 -76 0
-416 -77 0
-417 -78 0
-442 -76 0
-443 -77 0
-444 -78 0
-538 -76 0
-539 -77 0
-540 -78 0
-211 -79 0
-212 -80 0
-213 -81 0
-232 -79 0
-233 -80 0
-234 -81 0
-439 -79 0
-440 -80 0
-441 -81 0
-565 -79 0
-566 -80 0
-567 -81 0
-223 -82 0
-224 -83 0
-225 -84 0
-382 -82 0
-383 -83 0
-384 -84 0
-460 -82 0
-461 -83 0
-462 -84 0
-502 -82 0
-503 -83 0
-504 -84 0
-511 -82 0
-512 -83 0
-513 -84 0
-529 -82 0
-530 -83 0
-531 -84 0
-352 -85 0
-353 -86 0
-354 -87 0
-478 -85 0
-479 -86 0
-480 -87 0
-154 -88 0
-155 -89 0
-156 -90 0
-355 -88 0
-356 -89 0
-357 -90 0
-223 -91 0
-224 -92 0
-225 -93 0
-256 -91 0
-257 -92 0
-258 -93 0
-268 -91 0
-269 -92 0
-270 -93 0
-319 -91 0
-320 -92 0
-321 -93 0
-145 -94 0
-146 -95 0
-147 -96 0
-172 -94 0
-173 -95 0
-174 -96 0
-175 -94 0
-176 -95 0
-177 -96 0
-205 -94 0
-206 -95 0
-207 -96 0
-370 -94 0
-371 -95 0
-372 -96 0
-238 -97 0
-239 -98 0
-240 -99 0
-301 -97 0
-302 -98 0
-303 -99 0
-373 -97 0
-374 -98 0
-375 -99 0
-133 -100 0
-134 -101 0
-135 -102 0
-145 -100 0
-146 -101 0
-147 -102 0
-187 -100 0
-188 -101 0
-189 -102 0
-274 -100 0
-275 -101 0
-276 -102 0
-226 -103 0
-227 -104 0
-228 -105 0
-256 -103 0
-257 -104 0
-258 -105 0
-334 -103 0
-335 -104 0
-336 -105 0
-595 -103 0
-596 -104 0
-597 -105 0
-127 -106 0
-128 -107 0
-129 -108 0
-352 -106 0
-353 -107 0
-354 -108 0
-424 -106 0
-425 -107 0
-426 -108 0
-430 -106 0
-431 -107 0
-432 -108 0
-580 -106 0
-581 -107 0
-582 -108 0
-148 -109 0
-149 -110 0
-150 -111 0
-178 -109 0
-179 -110 0
-180 -111 0
-574 -109 0
-575 -110 0
-576 -111 0
-127 -112 0
-128 -113 0
-129 -114 0
-232 -112 0
-233 -113 0
-234 -114 0
-400 -112 0
-401 -113 0
-402 -114 0
-427 -112 0
-428 -113 0
-429 -114 0
-538 -112 0
-539 -113 0
-540 -114 0
-574 -112 0
-575 -113 0
-576 -114 0
-121 -115 0
-122 -116 0
-123 -117 0
-280 -115 0
-281 -116 0
-282 -117 0
-319 -115 0
-320 -116 0
-321 -117 0
-361 -115 0
-362 -116 0
-363 -117 0
-430 -115 0
-431 -116 0
-432 -117 0
-439 -115 0
-440 -116 0
-441 -117 0
-529 -115 0
-530 -116 0
-531 -117 0
-580 -115 0
-581 -116 0
-582 -117 0
-274 -118 0
-275 -119 0
-276 -120 0
-346 -118 0
-347 -119 0
-348 -120 0
-421 -118 0
-422 -119 0
-423 -120 0
-484 -118 0
-485 -119 0
-486 -120 0
-520 -118 0
-521 -119 0
-522 -120 0
-136 -121 0
-137 -122 0
-138 -123 0
-289 -121 0
-290 -122 0
-291 -123 0
-514 -121 0
-515 -122 0
-516 -123 0
-571 -121 0
-572 -122 0
-573 -123 0
-166 -124 0
-167 -125 0
-168 -126 0
-268 -124 0
-269 -125 0
-270 -126 0
-286 -124 0
-287 -125 0
-288 -126 0
-208 -127 0
-209 -128 0
-210 -129 0
-571 -127 0
-572 -128 0
-573 -129 0
-391 -130 0
-392 -131 0
-393 -132 0
-466 -130 0
-467 -131 0
-468 -132 0
-511 -130 0
-512 -131 0
-513 -132 0
-157 -133 0
-158 -134 0
-159 -135 0
-535 -133 0
-536 -134 0
-537 -135 0
-319 -136 0
-320 -137 0
-321 -138 0
-388 -136 0
-389 -137 0
-390 -138 0
-433 -136 0
-434 -137 0
-435 -138 0
-505 -136 0
-506 -137 0
-507 -138 0
-514 -136 0
-515 -137 0
-516 -138 0
-541 -136 0
-542 -137 0
-543 -138 0
-592 -139 0
-593 -140 0
-594 -141 0
-178 -142 0
-179 -143 0
-180 -144 0
-307 -142 0
-308 -143 0
-309 -144 0
-319 -145 0
-320 -146 0
-321 -147 0
-436 -145 0
-437 -146 0
-438 -147 0
-523 -145 0
-524 -146 0
-525 -147 0
-178 -148 0
-179 -149 0
-180 -150 0
-238 -148 0
-239 -149 0
-240 -150 0
-247 -148 0
-248 -149 0
-249 -150 0
-253 -148 0
-254 -149 0
-255 -150 0
-289 -148 0
-290 -149 0
-291 -150 0
-190 -151 0
-191 -152 0
-192 -153 0
-322 -151 0
-323 -152 0
-324 -153 0
-364 -151 0
-365 -152 0
-366 -153 0
-361 -154 0
-362 -155 0
-363 -156 0
-544 -154 0
-545 -155 0
-546 -156 0
-565 -154 0
-566 -155 0
-567 -156 0
-598 -154 0
-599 -155 0
-600 -156 0
-172 -157 0
-173 -158 0
-174 -159 0
-445 -157 0
-446 -158 0
-447 -159 0
-499 -157 0
-500 -158 0
-501 -159 0
-508 -157 0
-509 -158 0
-510 -159 0
-217 -160 0
-218 -161 0
-219 -162 0
-301 -160 0
-302 -161 0
-303 -162 0
-592 -160 0
-593 -161 0
-594 -162 0
-193 -163 0
-194 -164 0
-195 -165 0
-232 -163 0
-233 -164 0
-234 -165 0
-385 -163 0
-386 -164 0
-387 -165 0
-418 -163 0
-419 -164 0
-420 -165 0
-439 -163 0
-440 -164 0
-441 -165 0
-508 -163 0
-509 -164 0
-510 -165 0
-586 -163 0
-587 -164 0
-588 -165 0
-187 -166 0
-188 -167 0
-189 -168 0
-280 -166 0
-281 -167 0
-282 -168 0
-295 -166 0
-296 -167 0
-297 -168 0
-310 -166 0
-311 -167 0
-312 -168 0
-559 -166 0
-560 -167 0
-561 -168 0
-565 -166 0
-566 -167 0
-567 -168 0
-235 -169 0
-236 -170 0
-237 -171 0
-583 -169 0
-584 -170 0
-585 -171 0
-382 -172 0
-383 -173 0
-384 -174 0
-511 -172 0
-512 -173 0
-513 -174 0
-361 -175 0
-362 -176 0
-363 -177 0
-481 -175 0
-482 -176 0
-483 -177 0
-505 -175 0
-506 -176 0
-507 -177 0
-517 -175 0
-518 -176 0
-519 -177 0
-199 -178 0
-200 -179 0
-201 -180 0
-271 -181 0
-272 -182 0
-273 -183 0
-337 -181 0
-338 -182 0
-339 -183 0
-394 -181 0
-395 -182 0
-396 -183 0
-517 -181 0
-518 -182 0
-519 -183 0
-592 -181 0
-593 -182 0
-594 -183 0
-472 -184 0
-473 -185 0
-474 -186 0
-205 -187 0
-206 -188 0
-207 -189 0
-280 -187 0
-281 -188 0
-282 -189 0
-544 -187 0
-545 -188 0
-546 -189 0
-346 -190 0
-347 -191 0
-348 -192 0
-358 -190 0
-359 -191 0
-360 -192 0
-403 -190 0
-404 -191 0
-405 -192 0
-595 -190 0
-596 -191 0
-597 -192 0
-205 -193 0
-206 -194 0
-207 -195 0
-385 -193 0
-386 -194 0
-387 -195 0
-433 -193 0
-434 -194 0
-435 -195 0
-529 -193 0
-530 -194 0
-531 -195 0
-568 -193 0
-569 -194 0
-570 -195 0
-280 -196 0
-281 -197 0
-282 -198 0
-358 -196 0
-359 -197 0
-360 -198 0
-418 -196 0
-419 -197 0
-420 -198 0
-463 -196 0
-464 -197 0
-465 -198 0
-478 -196 0
-479 -197 0
-480 -198 0
-226 -199 0
-227 -200 0
-228 -201 0
-238 -199 0
-239 -200 0
-240 -201 0
-496 -199 0
-497 -200 0
-498 -201 0
-310 -202 0
-311 -203 0
-312 -204 0
-340 -202 0
-341 -203 0
-342 -204 0
-418 -202 0
-419 -203 0
-420 -204 0
-286 -205 0
-287 -206 0
-288 -207 0
-451 -205 0
-452 -206 0
-453 -207 0
-535 -205 0
-536 -206 0
-537 -207 0
-250 -208 0
-251 -209 0
-252 -210 0
-310 -208 0
-311 -209 0
-312 -210 0
-370 -208 0
-371 -209 0
-372 -210 0
-493 -208 0
-494 -209 0
-495 -210 0
-550 -208 0
-551 -209 0
-552 -210 0
-577 -208 0
-578 -209 0
-579 -210 0
-286 -211 0
-287 -212 0
-288 -213 0
-346 -211 0
-347 -212 0
-348 -213 0
-394 -211 0
-395 -212 0
-396 -213 0
-241 -217 0
-242 -218 0
-243 -219 0
-442 -217 0
-443 -218 0
-444 -219 0
-457 -217 0
-458 -218 0
-459 -219 0
-469 -217 0
-470 -218 0
-471 -219 0
-583 -217 0
-584 -218 0
-585 -219 0
-592 -217 0
-593 -218 0
-594 -219 0
-307 -220 0
-308 -221 0
-309 -222 0
-322 -220 0
-323 -221 0
-324 -222 0
-400 -220 0
-401 -221 0
-402 -222 0
-547 -220 0
-548 -221 0
-549 -222 0
-400 -223 0
-401 -224 0
-402 -225 0
-439 -223 0
-440 -224 0
-441 -225 0
-313 -226 0
-314 -227 0
-315 -228 0
-502 -226 0
-503 -227 0
-504 -228 0
-553 -226 0
-554 -227 0
-555 -228 0
-556 -226 0
-557 -227 0
-558 -228 0
-355 -229 0
-356 -230 0
-357 -231 0
-394 -229 0
-395 -230 0
-396 -231 0
-292 -232 0
-293 -233 0
-294 -234 0
-238 -235 0
-239 -236 0
-240 -237 0
-436 -235 0
-437 -236 0
-438 -237 0
-481 -235 0
-482 -236 0
-483 -237 0
-568 -235 0
-569 -236 0
-570 -237 0
-598 -235 0
-599 -236 0
-600 -237 0
-526 -238 0
-527 -239 0
-528 -240 0
-598 -238 0
-599 -239 0
-600 -240 0
-259 -241 0
-260 -242 0
-261 -243 0
-385 -241 0
-386 -242 0
-387 -243 0
-559 -241 0
-560 -242 0
-561 -243 0
-574 -241 0
-575 -242 0
-576 -243 0
-583 -241 0
-584 -242 0
-585 -243 0
-391 -244 0
-392 -245 0
-393 -246 0
-412 -244 0
-413 -245 0
-414 -246 0
-454 -244 0
-455 -245 0
-456 -246 0
-475 -244 0
-476 -245 0
-477 -246 0
-403 -247 0
-404 -248 0
-405 -249 0
-481 -247 0
-482 -248 0
-483 -249 0
-514 -247 0
-515 -248 0
-516 -249 0
-310 -250 0
-311 -251 0
-312 -252 0
-409 -250 0
-410 -251 0
-411 -252 0
-469 -250 0
-470 -251 0
-471 -252 0
-577 -250 0
-578 -251 0
-579 -252 0
-361 -253 0
-362 -254 0
-363 -255 0
-415 -256 0
-416 -257 0
-417 -258 0
-328 -259 0
-329 -260 0
-330 -261 0
-406 -259 0
-407 -260 0
-408 -261 0
-475 -259 0
-476 -260 0
-477 -261 0
-268 -262 0
-269 -263 0
-270 -264 0
-280 -262 0
-281 -263 0
-282 -264 0
-355 -262 0
-356 -263 0
-357 -264 0
-385 -262 0
-386 -263 0
-387 -264 0
-424 -262 0
-425 -263 0
-426 -264 0
-451 -262 0
-452 -263 0
-453 -264 0
-472 -262 0
-473 -263 0
-474 -264 0
-556 -262 0
-557 -263 0
-558 -264 0
-361 -265 0
-362 -266 0
-363 -267 0
-598 -265 0
-599 -266 0
-600 -267 0
-445 -268 0
-446 -269 0
-447 -270 0
-598 -268 0
-599 -269 0
-600 -270 0
-310 -274 0
-311 -275 0
-312 -276 0
-385 -274 0
-386 -275 0
-387 -276 0
-511 -277 0
-512 -278 0
-513 -279 0
-535 -277 0
-536 -278 0
-537 -279 0
-598 -277 0
-599 -278 0
-600 -279 0
-448 -280 0
-449 -281 0
-450 -282 0
-343 -283 0
-344 -284 0
-345 -285 0
-439 -283 0
-440 -284 0
-441 -285 0
-442 -283 0
-443 -284 0
-444 -285 0
-484 -283 0
-485 -284 0
-486 -285 0
-451 -286 0
-452 -287 0
-453 -288 0
-457 -286 0
-458 -287 0
-459 -288 0
-493 -286 0
-494 -287 0
-495 -288 0
-451 -289 0
-452 -290 0
-453 -291 0
-466 -289 0
-467 -290 0
-468 -291 0
-526 -289 0
-527 -290 0
-528 -291 0
-499 -292 0
-500 -293 0
-501 -294 0
-562 -292 0
-563 -293 0
-564 -294 0
-595 -292 0
-596 -293 0
-597 -294 0
-385 -295 0
-386 -296 0
-387 -297 0
-439 -295 0
-440 -296 0
-441 -297 0
-487 -295 0
-488 -296 0
-489 -297 0
-391 -298 0
-392 -299 0
-393 -300 0
-409 -298 0
-410 -299 0
-411 -300 0
-433 -298 0
-434 -299 0
-435 -300 0
-526 -298 0
-527 -299 0
-528 -300 0
-520 -301 0
-521 -302 0
-522 -303 0
-553 -301 0
-554 -302 0
-555 -303 0
-463 -304 0
-464 -305 0
-465 -306 0
-556 -304 0
-557 -305 0
-558 -306 0
-415 -310 0
-416 -311 0
-417 -312 0
-418 -313 0
-419 -314 0
-420 -315 0
-535 -313 0
-536 -314 0
-537 -315 0
-556 -313 0
-557 -314 0
-558 -315 0
-562 -313 0
-563 -314 0
-564 -315 0
-568 -313 0
-569 -314 0
-570 -315 0
-574 -313 0
-575 -314 0
-576 -315 0
-379 -316 0
-380 -317 0
-381 -318 0
-577 -316 0
-578 -317 0
-579 -318 0
-451 -319 0
-452 -320 0
-453 -321 0
-571 -319 0
-572 -320 0
-573 -321 0
-424 -322 0
-425 -323 0
-426 -324 0
-583 -322 0
-584 -323 0
-585 -324 0
-358 -325 0
-359 -326 0
-360 -327 0
-373 -328 0
-374 -329 0
-375 -330 0
-499 -328 0
-500 -329 0
-501 -330 0
-523 -328 0
-524 -329 0
-525 -330 0
-553 -328 0
-554 -329 0
-555 -330 0
-595 -328 0
-596 -329 0
-597 -330 0
-346 -331 0
-347 -332 0
-348 -333 0
-352 -331 0
-353 -332 0
-354 -333 0
-532 -331 0
-533 -332 0
-534 -333 0
-580 -331 0
-581 -332 0
-582 -333 0
-424 -334 0
-425 -335 0
-426 -336 0
-460 -334 0
-461 -335 0
-462 -336 0
-502 -334 0
-503 -335 0
-504 -336 0
-418 -337 0
-419 -338 0
-420 -339 0
-391 -340 0
-392 -341 0
-393 -342 0
-442 -340 0
-443 -341 0
-444 -342 0
-487 -340 0
-488 -341 0
-489 -342 0
-445 -343 0
-446 -344 0
-447 -345 0
-361 -346 0
-362 -347 0
-363 -348 0
-472 -346 0
-473 -347 0
-474 -348 0
-583 -349 0
-584 -350 0
-585 -351 0
-505 -352 0
-506 -353 0
-507 -354 0
-484 -355 0
-485 -356 0
-486 -357 0
-406 -361 0
-407 -362 0
-408 -363 0
-445 -361 0
-446 -362 0
-447 -363 0
-550 -364 0
-551 -365 0
-552 -366 0
-388 -367 0
-389 -368 0
-390 -369 0
-430 -367 0
-431 -368 0
-432 -369 0
-445 -367 0
-446 -368 0
-447 -369 0
-472 -367 0
-473 -368 0
-474 -369 0
-574 -367 0
-575 -368 0
-576 -369 0
-388 -370 0
-389 -371 0
-390 -372 0
-424 -370 0
-425 -371 0
-426 -372 0
-430 -370 0
-431 -371 0
-432 -372 0
-436 -370 0
-437 -371 0
-438 -372 0
-442 -373 0
-443 -374 0
-444 -375 0
-493 -373 0
-494 -374 0
-495 -375 0
-499 -373 0
-500 -374 0
-501 -375 0
-589 -376 0
-590 -377 0
-591 -378 0
-397 -379 0
-398 -380 0
-399 -381 0
-454 -379 0
-455 -380 0
-456 -381 0
-598 -379 0
-599 -380 0
-600 -381 0
-523 -382 0
-524 -383 0
-525 -384 0
-448 -388 0
-449 -389 0
-450 -390 0
-466 -388 0
-467 -389 0
-468 -390 0
-559 -388 0
-560 -389 0
-561 -390 0
-487 -391 0
-488 -392 0
-489 -393 0
-415 -394 0
-416 -395 0
-417 -396 0
-568 -394 0
-569 -395 0
-570 -396 0
-454 -397 0
-455 -398 0
-456 -399 0
-505 -397 0
-506 -398 0
-507 -399 0
-535 -397 0
-536 -398 0
-537 -399 0
-529 -400 0
-530 -401 0
-531 -402 0
-487 -403 0
-488 -404 0
-489 -405 0
-556 -403 0
-557 -404 0
-558 -405 0
-508 -406 0
-509 -407 0
-510 -408 0
-550 -406 0
-551 -407 0
-552 -408 0
-574 -406 0
-575 -407 0
-576 -408 0
-574 -409 0
-575 -410 0
-576 -411 0
-496 -412 0
-497 -413 0
-498 -414 0
-544 -412 0
-545 -413 0
-546 -414 0
-442 -415 0
-443 -416 0
-444 -417 0
-526 -415 0
-527 -416 0
-528 -417 0
-469 -418 0
-470 -419 0
-471 -420 0
-580 -418 0
-581 -419 0
-582 -420 0
-454 -421 0
-455 -422 0
-456 -423 0
-532 -421 0
-533 -422 0
-534 -423 0
-571 -421 0
-572 -422 0
-573 -423 0
-454 -424 0
-455 -425 0
-456 -426 0
-490 -424 0
-491 -425 0
-492 -426 0
-496 -424 0
-497 -425 0
-498 -426 0
-523 -436 0
-524 -437 0
-525 -438 0
-487 -445 0
-488 -446 0
-489 -447 0
-490 -445 0
-491 -446 0
-492 -447 0
-526 -451 0
-527 -452 0
-528 -453 0
-589 -451 0
-590 -452 0
-591 -453 0
-595 -454 0
-596 -455 0
-597 -456 0
-490 -457 0
-491 -458 0
-492 -459 0
-571 -460 0
-572 -461 0
-573 -462 0
-580 -460 0
-581 -461 0
-582 -462 0
-589 -463 0
-590 -464 0
-591 -465 0
-490 -466 0
-491 -467 0
-492 -468 0
-592 -466 0
-593 -467 0
-594 -468 0
-511 -469 0
-512 -470 0
-513 -471 0
-589 -469 0
-590 -470 0
-591 -471 0
-487 -475 0
-488 -476 0
-489 -477 0
-535 -475 0
-536 -476 0
-537 -477 0
-550 -475 0
-551 -476 0
-552 -477 0
-559 -481 0
-560 -482 0
-561 -483 0
-583 -481 0
-584 -482 0
-585 -483 0
-559 -487 0
-560 -488 0
-561 -489 0
-517 -490 0
-518 -491 0
-519 -492 0
-538 -496 0
-539 -497 0
-540 -498 0
-520 -499 0
-521 -500 0
-522 -501 0
-559 -499 0
-560 -500 0
-561 -501 0
-598 -499 0
-599 -500 0
-600 -501 0
-562 -517 0
-563 -518 0
-564 -519 0
-568 -520 0
-569 -521 0
-570 -522 0
-592 -520 0
-593 -521 0
-594 -522 0
-559 -523 0
-560 -524 0
-561 -525 0
-595 -523 0
-596 -524 0
-597 -525 0
-580 -526 0
-581 -527 0
-582 -528 0
-592 -526 0
-593 -527 0
-594 -528 0
-550 -541 0
-551 -542 0
-552 -543 0
-577 -544 0
-578 -545 0
-579 -546 0
-565 -547 0
-566 -548 0
-567 -549 0
-571 -556 0
-572 -557 0
-573 -558 0
-589 -556 0
-590 -557 0
-591 -558 0
-580 -568 0
-581 -569 0
-582 -570 0
-595 -571 0
-596 -572 0
-597 -573 0
